423 5
10 10 10 10 10 

0 0 0 0 0 0 4 2 14 26 38 
0 0 0 0 0 0 3 3 4 5 
7 0 0 1 0 0 4 12 9 7 6 
3 0 0 8 0 0 3 11 9 8 
4 0 0 4 0 0 3 10 9 8 
10 0 0 6 0 0 2 10 8 
6 0 0 3 0 0 1 8 
10 0 0 4 0 0 1 13 
3 0 0 6 0 0 1 13 
4 0 0 4 0 0 1 13 
1 0 0 8 0 0 1 13 
4 0 0 6 0 0 1 13 
0 0 0 0 0 0 1 50 
0 0 0 0 0 0 4 15 16 17 18 
9 1 0 0 0 0 3 21 20 19 
3 5 0 0 0 0 3 21 20 19 
6 6 0 0 0 0 2 21 20 
4 5 0 0 0 0 1 19 
9 7 0 0 0 0 3 24 23 22 
10 6 0 0 0 0 2 24 22 
1 6 0 0 0 0 2 23 22 
2 4 0 0 0 0 1 25 
1 5 0 0 0 0 1 25 
1 5 0 0 0 0 1 25 
0 0 0 0 0 0 1 50 
0 0 0 0 0 0 4 27 28 30 31 
10 0 0 1 0 0 3 35 33 29 
8 0 0 9 0 0 4 35 34 33 32 
8 0 0 6 0 0 3 36 34 32 
7 0 0 1 0 0 2 33 32 
6 0 0 9 0 0 1 32 
10 0 0 5 0 0 1 37 
5 0 0 3 0 0 1 37 
1 0 0 7 0 0 1 37 
2 0 0 4 0 0 1 37 
8 0 0 5 0 0 1 37 
0 0 0 0 0 0 1 50 
0 0 0 0 0 0 3 39 40 41 
9 0 0 0 1 0 3 44 43 42 
9 0 0 0 8 0 3 44 43 42 
10 0 0 0 4 0 2 44 42 
5 0 0 0 1 0 4 48 47 46 45 
6 0 0 0 6 0 4 48 47 46 45 
7 0 0 0 9 0 3 47 46 45 
5 0 0 0 7 0 1 49 
5 0 0 0 5 0 1 49 
9 0 0 0 3 0 1 49 
7 0 0 0 6 0 1 49 
0 0 0 0 0 0 1 50 
0 0 0 0 0 0 4 51 63 105 147 
0 0 0 0 0 0 3 52 53 56 
10 1 0 0 0 0 3 61 57 55 
5 6 0 0 0 0 2 57 54 
10 6 0 0 0 0 4 61 60 59 58 
4 4 0 0 0 0 2 59 58 
9 2 0 0 0 0 2 59 58 
10 7 0 0 0 0 1 60 
2 7 0 0 0 0 1 62 
8 9 0 0 0 0 1 62 
4 2 0 0 0 0 1 62 
7 6 0 0 0 0 1 62 
0 0 0 0 0 0 4 189 221 253 265 
0 0 0 0 0 0 5 64 67 69 70 74 
3 2 1 0 1 1 3 72 68 65 
1 5 4 0 7 8 2 76 66 
1 3 3 0 5 2 6 103 81 79 77 73 71 
9 5 5 0 3 3 5 103 81 79 77 71 
8 5 6 0 1 1 9 103 92 89 86 83 80 79 78 77 
7 6 5 0 3 4 7 92 91 90 84 83 75 72 
7 4 4 0 3 2 6 92 84 83 78 77 73 
6 6 4 0 6 5 9 92 91 90 89 88 86 84 83 75 
9 6 5 0 6 4 4 88 86 79 76 
7 5 4 0 3 7 4 91 90 88 82 
9 5 10 0 4 7 4 89 88 84 79 
2 6 5 0 4 6 4 97 96 93 82 
4 5 5 0 3 5 3 93 89 81 
5 3 4 0 6 8 2 91 82 
9 2 10 0 4 6 2 97 81 
9 5 6 0 3 9 3 97 93 85 
5 4 5 0 5 4 3 94 90 88 
10 4 5 0 5 7 3 102 96 85 
2 8 5 0 8 2 2 102 85 
4 5 5 0 6 2 2 102 85 
2 7 3 0 9 6 2 96 85 
2 9 2 0 5 6 1 87 
6 6 4 0 4 2 4 102 101 100 96 
10 4 4 0 7 6 3 101 95 94 
5 6 7 0 3 3 3 102 96 95 
7 5 6 0 5 8 3 96 95 94 
10 3 6 0 9 5 2 100 93 
3 5 6 0 5 4 2 97 94 
5 6 2 0 7 6 1 93 
1 5 3 0 9 8 4 102 101 99 98 
3 3 4 0 4 5 2 99 98 
6 6 4 0 7 8 2 100 98 
9 7 9 0 3 5 2 99 98 
8 10 5 0 4 10 1 100 
10 3 4 0 8 6 1 104 
6 4 8 0 4 4 1 104 
3 4 2 0 3 1 1 104 
2 4 7 0 6 6 1 104 
4 3 8 0 6 5 1 104 
8 6 5 0 6 3 1 104 
0 0 0 0 0 0 1 423 
0 0 0 0 0 0 6 106 109 111 113 116 119 
1 2 0 1 1 1 3 114 110 107 
5 1 0 7 5 5 2 126 108 
5 4 0 5 6 5 8 145 131 124 123 121 120 115 112 
6 5 0 3 4 3 6 133 131 130 123 121 112 
10 5 0 7 4 8 8 145 134 131 129 122 121 120 117 
1 5 0 6 3 8 4 134 124 118 114 
9 10 0 3 7 3 6 144 134 132 129 125 118 
9 5 0 4 7 4 6 136 133 130 124 123 122 
7 4 0 4 4 8 5 136 129 126 123 121 
1 8 0 2 5 7 5 138 133 132 130 122 
3 4 0 9 7 4 4 144 143 131 127 
9 3 0 5 5 2 3 144 143 123 
1 5 0 7 4 4 2 138 122 
3 7 0 3 4 3 3 138 133 132 
10 6 0 8 5 7 2 130 127 
9 6 0 5 5 6 3 144 143 128 
8 3 0 5 4 1 2 143 127 
1 9 0 6 8 3 2 138 127 
7 6 0 4 3 4 2 138 128 
8 7 0 4 6 3 2 143 128 
2 2 0 5 5 5 3 141 135 131 
7 4 0 9 3 7 1 128 
8 6 0 5 4 9 3 141 137 135 
1 7 0 3 4 4 4 143 141 140 138 
8 4 0 8 8 4 4 144 142 140 139 
3 2 0 3 8 3 3 142 140 138 
4 2 0 5 8 8 2 139 136 
6 7 0 5 5 3 1 135 
10 3 0 2 6 5 1 136 
4 1 0 6 3 5 2 142 140 
8 5 0 6 5 6 2 143 141 
7 6 0 4 3 7 1 139 
1 5 0 2 6 8 1 139 
6 4 0 6 5 4 1 146 
9 5 0 6 6 7 1 146 
9 8 0 8 3 5 1 146 
5 6 0 3 8 6 1 146 
8 8 0 4 4 7 1 146 
7 5 0 8 6 2 1 146 
3 5 0 4 3 6 1 146 
0 0 0 0 0 0 1 423 
0 0 0 0 0 0 5 148 151 153 154 158 
1 2 2 1 0 2 3 156 152 149 
10 4 2 7 0 6 2 160 150 
7 4 5 9 0 3 7 187 174 165 163 161 157 155 
4 7 2 3 0 4 6 187 174 165 163 161 155 
4 4 3 8 0 10 9 187 176 174 170 168 164 163 162 161 
7 5 5 3 0 2 8 176 175 173 172 168 167 159 156 
8 4 7 6 0 7 5 176 167 162 161 157 
8 6 7 6 0 4 8 176 175 173 172 170 168 167 159 
5 4 2 5 0 4 4 170 165 163 160 
4 6 4 8 0 5 4 175 173 172 166 
5 2 5 5 0 10 4 174 172 167 163 
3 4 3 7 0 6 4 181 179 177 166 
10 10 10 2 0 4 3 177 174 169 
5 4 7 3 0 3 2 175 166 
4 1 4 3 0 4 2 181 165 
1 5 5 6 0 2 3 181 177 169 
9 6 4 3 0 10 3 180 173 172 
2 7 4 6 0 2 3 186 179 169 
6 5 4 7 0 5 2 186 169 
7 8 5 6 0 4 2 179 169 
8 5 6 5 0 10 2 186 169 
3 7 5 7 0 1 1 171 
3 6 5 6 0 7 4 186 185 184 179 
6 5 6 1 0 7 3 185 180 178 
7 5 6 8 0 2 3 186 179 178 
4 1 5 5 0 2 3 184 183 177 
5 3 4 1 0 9 3 180 179 178 
8 7 10 4 0 5 3 183 181 180 
10 3 7 5 0 6 2 183 177 
8 3 5 10 0 3 3 186 185 182 
8 4 10 5 0 1 2 184 183 
3 8 2 6 0 2 2 183 182 
2 4 3 3 0 3 1 182 
9 7 2 4 0 9 1 184 
7 4 6 5 0 6 1 188 
9 9 6 3 0 8 1 188 
7 4 8 8 0 6 1 188 
7 4 5 4 0 7 1 188 
2 8 4 2 0 7 1 188 
9 5 5 4 0 2 1 188 
0 0 0 0 0 0 1 423 
0 0 0 0 0 0 6 190 191 192 193 194 219 
6 1 1 0 0 2 5 202 198 197 196 195 
6 4 4 0 0 4 5 204 202 198 196 195 
4 9 4 0 0 5 5 211 199 198 196 195 
5 6 4 0 0 3 4 205 198 197 195 
10 4 5 0 0 4 2 218 197 
1 6 3 0 0 7 2 201 200 
4 4 5 0 0 5 3 206 205 203 
4 5 7 0 0 4 2 204 199 
7 3 9 0 0 6 2 206 203 
9 5 6 0 0 3 2 215 203 
5 4 3 0 0 5 2 215 203 
4 4 5 0 0 4 4 216 210 207 206 
9 4 6 0 0 6 1 203 
3 5 4 0 0 8 5 217 216 214 210 207 
1 3 7 0 0 7 5 217 216 214 210 207 
7 6 4 0 0 5 3 215 213 207 
5 9 5 0 0 4 3 215 214 213 
2 6 5 0 0 2 1 208 
4 7 5 0 0 3 1 209 
10 6 5 0 0 6 1 212 
3 3 4 0 0 2 1 213 
9 10 2 0 0 5 1 215 
4 6 5 0 0 3 1 220 
5 4 6 0 0 7 1 220 
3 3 8 0 0 10 1 220 
10 7 5 0 0 2 1 220 
5 1 5 0 0 10 1 220 
8 5 5 0 0 5 1 220 
8 7 8 0 0 4 1 220 
2 3 5 0 0 9 1 220 
0 0 0 0 0 0 1 423 
0 0 0 0 0 0 6 222 223 224 225 226 251 
6 4 0 0 1 1 5 234 230 229 228 227 
2 4 0 0 3 5 5 236 234 230 228 227 
3 4 0 0 8 4 5 243 231 230 228 227 
10 3 0 0 7 4 4 237 230 229 227 
8 3 0 0 5 3 2 250 229 
5 10 0 0 3 8 2 233 232 
1 7 0 0 3 7 3 238 237 235 
10 4 0 0 6 6 2 236 231 
8 4 0 0 3 7 2 238 235 
9 9 0 0 7 6 2 248 235 
1 2 0 0 6 5 4 247 242 239 238 
7 3 0 0 9 8 1 235 
3 7 0 0 6 7 1 235 
2 6 0 0 7 3 5 249 247 246 242 239 
8 5 0 0 3 8 5 249 247 246 242 239 
4 6 0 0 6 3 2 248 239 
5 7 0 0 7 5 3 248 246 245 
5 4 0 0 7 2 1 240 
3 6 0 0 2 3 1 241 
9 2 0 0 8 6 1 244 
1 3 0 0 6 4 1 245 
9 8 0 0 2 6 1 248 
10 7 0 0 4 4 1 252 
9 4 0 0 1 3 1 252 
6 7 0 0 7 5 1 252 
6 3 0 0 4 3 1 252 
3 8 0 0 5 5 1 252 
4 3 0 0 3 8 1 252 
1 2 0 0 5 6 1 252 
4 5 0 0 6 5 1 252 
0 0 0 0 0 0 1 423 
0 0 0 0 0 0 5 254 255 256 260 261 
8 0 0 0 0 1 3 259 258 257 
8 0 0 0 0 7 2 262 258 
10 0 0 0 0 7 2 262 258 
3 0 0 0 0 4 2 263 262 
6 0 0 0 0 4 1 263 
3 0 0 0 0 5 1 263 
8 0 0 0 0 5 1 262 
2 0 0 0 0 4 1 262 
5 0 0 0 0 4 1 264 
4 0 0 0 0 9 1 264 
0 0 0 0 0 0 4 297 319 341 363 
0 0 0 0 0 0 6 266 267 268 269 270 271 
1 0 0 1 1 2 3 274 273 272 
5 0 0 4 3 5 3 283 274 272 
6 0 0 3 6 3 2 274 272 
7 0 0 2 3 5 3 277 276 273 
10 0 0 7 6 8 3 277 276 273 
4 0 0 4 5 7 2 273 272 
9 0 0 8 6 6 5 281 279 278 276 275 
8 0 0 6 9 4 5 283 281 279 278 275 
2 0 0 4 5 4 2 280 277 
10 0 0 9 5 4 3 285 284 282 
7 0 0 8 4 5 3 285 284 282 
10 0 0 4 7 4 3 285 284 282 
6 0 0 5 5 10 2 285 282 
8 0 0 4 2 10 2 285 282 
6 0 0 7 5 1 2 285 282 
2 0 0 5 7 5 1 282 
3 0 0 5 6 3 3 292 287 286 
5 0 0 6 4 5 2 286 284 
6 0 0 5 3 2 4 295 292 290 288 
7 0 0 3 6 9 3 292 288 286 
5 0 0 5 5 3 2 290 289 
3 0 0 4 7 8 2 295 288 
4 0 0 5 6 6 1 289 
1 0 0 3 4 7 2 294 293 
1 0 0 10 6 1 1 291 
2 0 0 6 4 3 1 293 
2 0 0 3 4 4 1 294 
4 0 0 6 8 3 1 296 
4 0 0 3 4 5 1 296 
7 0 0 5 4 8 1 296 
0 0 0 0 0 0 1 423 
0 0 0 0 0 0 8 298 299 300 301 302 307 308 317 
7 0 1 0 0 1 5 316 315 314 313 305 
2 0 6 0 0 7 3 313 312 303 
5 0 7 0 0 6 4 314 313 312 306 
3 0 4 0 0 6 3 313 312 305 
5 0 7 0 0 5 2 312 304 
9 0 4 0 0 5 4 315 314 311 309 
5 0 5 0 0 8 1 305 
2 0 10 0 0 5 2 311 309 
2 0 2 0 0 5 2 311 309 
3 0 3 0 0 6 2 311 309 
10 0 5 0 0 3 2 316 312 
10 0 9 0 0 5 1 310 
5 0 6 0 0 3 1 318 
6 0 5 0 0 3 1 318 
3 0 3 0 0 7 1 318 
2 0 2 0 0 7 1 318 
5 0 5 0 0 5 1 318 
3 0 4 0 0 4 1 318 
1 0 6 0 0 6 1 318 
4 0 6 0 0 3 1 318 
0 0 0 0 0 0 1 423 
0 0 0 0 0 0 6 320 323 326 327 338 339 
6 0 1 1 0 0 3 337 328 321 
2 0 4 3 0 0 4 336 332 329 322 
8 0 6 5 0 0 3 335 330 325 
2 0 6 9 0 0 2 328 324 
2 0 5 4 0 0 3 332 331 329 
10 0 4 4 0 0 3 334 333 331 
5 0 6 10 0 0 2 331 328 
6 0 5 4 0 0 1 328 
4 0 3 10 0 0 1 330 
1 0 5 5 0 0 1 330 
5 0 6 4 0 0 1 340 
6 0 2 4 0 0 1 340 
3 0 6 4 0 0 1 340 
10 0 8 2 0 0 1 340 
10 0 7 5 0 0 1 340 
9 0 8 9 0 0 1 340 
6 0 3 4 0 0 1 340 
8 0 7 5 0 0 1 340 
10 0 4 4 0 0 1 340 
10 0 4 4 0 0 1 340 
0 0 0 0 0 0 1 423 
0 0 0 0 0 0 8 342 343 345 346 347 359 360 361 
1 1 0 0 0 1 3 355 349 344 
1 7 0 0 0 9 7 358 356 355 354 353 350 349 
10 1 0 0 0 5 4 356 353 352 348 
10 7 0 0 0 5 3 357 354 349 
10 7 0 0 0 4 3 353 352 349 
8 3 0 0 0 7 3 355 354 352 
5 2 0 0 0 5 1 350 
3 7 0 0 0 4 1 351 
10 4 0 0 0 7 1 351 
1 6 0 0 0 7 1 362 
7 9 0 0 0 5 1 362 
2 9 0 0 0 6 1 362 
7 8 0 0 0 9 1 362 
10 1 0 0 0 2 1 362 
9 3 0 0 0 4 1 362 
8 5 0 0 0 3 1 362 
10 4 0 0 0 7 1 362 
6 5 0 0 0 3 1 362 
10 6 0 0 0 5 1 362 
4 5 0 0 0 2 1 362 
0 0 0 0 0 0 1 423 
0 0 0 0 0 0 4 364 365 366 373 
6 0 0 0 0 1 4 372 371 368 367 
3 0 0 0 0 3 3 371 370 368 
10 0 0 0 0 5 2 370 368 
5 0 0 0 0 9 2 370 369 
4 0 0 0 0 6 1 369 
1 0 0 0 0 3 1 374 
4 0 0 0 0 5 1 374 
6 0 0 0 0 4 1 374 
7 0 0 0 0 7 1 374 
6 0 0 0 0 7 1 374 
0 0 0 0 0 0 4 375 387 399 411 
0 0 0 0 0 0 6 376 377 379 380 384 385 
6 0 0 0 0 1 2 383 378 
5 0 0 0 0 6 1 378 
4 0 0 0 0 8 1 381 
5 0 0 0 0 10 1 382 
8 0 0 0 0 3 1 381 
5 0 0 0 0 4 1 386 
9 0 0 0 0 5 1 386 
2 0 0 0 0 4 1 386 
2 0 0 0 0 2 1 386 
3 0 0 0 0 7 1 386 
0 0 0 0 0 0 1 423 
0 0 0 0 0 0 5 388 389 390 396 397 
3 0 0 0 1 0 3 395 394 392 
4 0 0 0 5 0 3 395 394 393 
8 0 0 0 6 0 1 391 
2 0 0 0 7 0 2 394 393 
8 0 0 0 7 0 1 393 
10 0 0 0 7 0 1 398 
10 0 0 0 8 0 1 398 
8 0 0 0 4 0 1 398 
1 0 0 0 4 0 1 398 
3 0 0 0 1 0 1 398 
0 0 0 0 0 0 1 423 
0 0 0 0 0 0 5 400 401 402 403 409 
3 0 0 0 1 0 3 408 407 404 
10 0 0 0 6 0 3 407 406 405 
4 0 0 0 5 0 2 406 405 
3 0 0 0 2 0 2 406 405 
5 0 0 0 8 0 1 405 
8 0 0 0 4 0 1 410 
8 0 0 0 8 0 1 410 
5 0 0 0 6 0 1 410 
3 0 0 0 5 0 1 410 
9 0 0 0 5 0 1 410 
0 0 0 0 0 0 1 423 
0 0 0 0 0 0 4 412 413 415 417 
6 0 0 0 1 0 3 421 416 414 
6 0 0 0 6 0 3 421 418 414 
7 0 0 0 4 0 2 420 419 
5 0 0 0 9 0 2 420 418 
5 0 0 0 4 0 1 418 
2 0 0 0 7 0 1 419 
4 0 0 0 4 0 1 422 
1 0 0 0 5 0 1 422 
9 0 0 0 1 0 1 422 
4 0 0 0 9 0 1 422 
0 0 0 0 0 0 1 423 
0 0 0 0 0 0 0 
